Route #1: 58 22 55 33 24
Route #2: 31 23 46 7
Route #3: 21 61 60 37 16 54
Route #4: 12 6 27 35 8
Route #5: 25 15 40 29 56 17
Route #6: 49 45 39 1 41 9 2 14 53
Route #7: 59 10 19 42 3 5 18
Route #8: 52 43 30 48
Route #9: 20 13 26 4 38 36
Route #10: 28 57 32 34 11 47 44 51 62 50
Cost 1318
Time 0.461134
Tempo = 0.4741217999981018